
Value of objective function: 20.00000000

Actual values of the variables:
t1                              0
t2                              0
t3                              1
t4                              0
t5                              0
t6                              1
t7                              0
t8                              0
t9                              1
t10                             1
t11                             0
t12                             0
t13                             1
t14                             1
t15                             1
t16                             0
t17                             1
t18                             0
t19                             0
t20                             0
t21                             1
t22                             1
t23                             0
t24                             0
t25                             1
t26                             1
t27                             0
t28                             0
t29                             0
t30                             0
t31                             0
t32                             0
t33                             0
t34                             1
t35                             1
t36                             0
t37                             0
t38                             1
t39                             0
t40                             1
t41                             0
t42                             1
t43                             1
t44                             1
t45                             1
